c Created with the Wolfram Language : www.wolfram.com
c 
p edge 80 486
e 3 4
e 6 7
e 5 9
e 8 9
e 8 10
e 2 12
e 8 12
e 10 12
e 4 13
e 12 14
e 13 14
e 3 15
e 6 15
e 10 15
e 13 15
e 3 17
e 6 18
e 11 18
e 12 18
e 14 18
e 1 19
e 2 19
e 6 19
e 3 20
e 4 20
e 5 20
e 14 20
e 3 21
e 5 21
e 8 22
e 1 23
e 8 23
e 12 23
e 20 23
e 6 24
e 9 24
e 7 25
e 16 25
e 2 26
e 6 26
e 12 26
e 24 26
e 1 27
e 4 27
e 10 27
e 13 27
e 14 27
e 25 27
e 3 28
e 8 28
e 20 28
e 7 29
e 9 29
e 10 29
e 24 29
e 13 30
e 18 30
e 23 30
e 16 31
e 21 31
e 23 31
e 30 31
e 7 32
e 9 32
e 26 32
e 4 33
e 5 33
e 15 33
e 22 33
e 7 34
e 11 34
e 14 34
e 18 34
e 21 34
e 30 34
e 2 35
e 4 35
e 8 35
e 12 35
e 16 35
e 31 35
e 32 35
e 3 36
e 4 36
e 9 36
e 13 36
e 20 36
e 28 36
e 12 37
e 24 37
e 26 37
e 31 37
e 34 37
e 12 38
e 21 38
e 32 38
e 37 38
e 5 39
e 9 39
e 12 39
e 15 39
e 17 39
e 27 39
e 29 39
e 30 39
e 4 40
e 19 40
e 21 40
e 31 40
e 34 40
e 4 41
e 8 41
e 9 41
e 15 41
e 17 41
e 18 41
e 26 41
e 29 41
e 39 41
e 5 42
e 6 42
e 11 42
e 21 42
e 24 42
e 26 42
e 29 42
e 34 42
e 37 42
e 5 43
e 8 43
e 14 43
e 17 43
e 22 43
e 24 43
e 26 43
e 27 43
e 30 43
e 36 43
e 40 43
e 2 44
e 3 44
e 4 44
e 5 44
e 16 44
e 33 44
e 39 44
e 6 45
e 11 45
e 15 45
e 38 45
e 42 45
e 3 46
e 10 46
e 11 46
e 12 46
e 13 46
e 22 46
e 25 46
e 32 46
e 37 46
e 3 47
e 8 47
e 13 47
e 19 47
e 22 47
e 37 47
e 41 47
e 44 47
e 1 48
e 4 48
e 5 48
e 10 48
e 23 48
e 16 49
e 17 49
e 23 49
e 25 49
e 48 49
e 6 50
e 15 50
e 16 50
e 17 50
e 24 50
e 25 50
e 27 50
e 42 50
e 1 51
e 13 51
e 18 51
e 21 51
e 24 51
e 39 51
e 46 51
e 5 52
e 20 52
e 22 52
e 35 52
e 41 52
e 48 52
e 7 53
e 8 53
e 12 53
e 13 53
e 37 53
e 39 53
e 48 53
e 9 54
e 10 54
e 11 54
e 21 54
e 29 54
e 35 54
e 51 54
e 6 55
e 8 55
e 10 55
e 12 55
e 17 55
e 22 55
e 25 55
e 32 55
e 35 55
e 45 55
e 51 55
e 31 56
e 33 56
e 38 56
e 41 56
e 1 57
e 3 57
e 9 57
e 11 57
e 20 57
e 27 57
e 33 57
e 34 57
e 51 57
e 55 57
e 1 58
e 5 58
e 12 58
e 13 58
e 26 58
e 36 58
e 41 58
e 48 58
e 51 58
e 1 59
e 8 59
e 23 59
e 27 59
e 29 59
e 40 59
e 42 59
e 57 59
e 6 60
e 8 60
e 11 60
e 24 60
e 34 60
e 35 60
e 38 60
e 39 60
e 41 60
e 6 61
e 21 61
e 24 61
e 27 61
e 36 61
e 38 61
e 43 61
e 48 61
e 53 61
e 54 61
e 58 61
e 60 61
e 6 62
e 16 62
e 17 62
e 23 62
e 27 62
e 30 62
e 35 62
e 57 62
e 9 63
e 20 63
e 41 63
e 44 63
e 46 63
e 49 63
e 20 64
e 22 64
e 26 64
e 35 64
e 37 64
e 39 64
e 40 64
e 44 64
e 49 64
e 50 64
e 54 64
e 57 64
e 4 65
e 19 65
e 22 65
e 33 65
e 41 65
e 42 65
e 46 65
e 49 65
e 51 65
e 52 65
e 58 65
e 61 65
e 2 66
e 3 66
e 14 66
e 20 66
e 26 66
e 27 66
e 33 66
e 37 66
e 43 66
e 56 66
e 61 66
e 62 66
e 3 67
e 28 67
e 37 67
e 40 67
e 41 67
e 45 67
e 47 67
e 50 67
e 52 67
e 54 67
e 55 67
e 56 67
e 58 67
e 62 67
e 1 68
e 11 68
e 14 68
e 47 68
e 67 68
e 23 69
e 30 69
e 35 69
e 38 69
e 49 69
e 58 69
e 66 69
e 2 70
e 9 70
e 11 70
e 14 70
e 17 70
e 27 70
e 32 70
e 38 70
e 43 70
e 55 70
e 56 70
e 67 70
e 7 71
e 8 71
e 13 71
e 16 71
e 26 71
e 36 71
e 37 71
e 38 71
e 39 71
e 48 71
e 60 71
e 64 71
e 12 72
e 22 72
e 25 72
e 30 72
e 34 72
e 41 72
e 42 72
e 44 72
e 55 72
e 57 72
e 67 72
e 69 72
e 70 72
e 4 73
e 6 73
e 9 73
e 19 73
e 26 73
e 31 73
e 35 73
e 43 73
e 44 73
e 51 73
e 52 73
e 58 73
e 59 73
e 61 73
e 66 73
e 45 74
e 55 74
e 60 74
e 61 74
e 63 74
e 69 74
e 9 75
e 15 75
e 22 75
e 32 75
e 38 75
e 40 75
e 49 75
e 59 75
e 67 75
e 69 75
e 70 75
e 74 75
e 2 76
e 12 76
e 21 76
e 31 76
e 35 76
e 45 76
e 47 76
e 64 76
e 7 77
e 10 77
e 13 77
e 15 77
e 21 77
e 34 77
e 38 77
e 43 77
e 45 77
e 54 77
e 59 77
e 69 77
e 71 77
e 75 77
e 15 78
e 19 78
e 27 78
e 32 78
e 43 78
e 46 78
e 48 78
e 50 78
e 56 78
e 61 78
e 65 78
e 71 78
e 72 78
e 73 78
e 74 78
e 76 78
e 2 79
e 13 79
e 39 79
e 41 79
e 44 79
e 45 79
e 47 79
e 54 79
e 60 79
e 67 79
e 72 79
e 76 79
e 77 79
e 6 80
e 8 80
e 16 80
e 40 80
e 46 80
e 50 80
e 53 80
e 60 80
e 64 80
e 65 80
e 66 80
e 73 80
e 77 80
